361,243
657,389
708,321
736,235
681,136
708,321
435,745
427,660
444,443
237,336
470,115
736,235
875,547
858,753
926,887
875,547
894,514
994,305
1081,202
994,305
702,385
444,443
196,563
444,443
708,459
504,434
621,406
657,389
611,-38
826,511
830,700
1020,652
980,818
830,700
644,520
826,511
894,514
888,438
702,385
880,342
621,406
